15
0 1 2 3 1 1 1 4 2 1 3 2 3 4 3 2 2 5 4 1 3 4 5 6 6 5 7 4 2 3 2 4 5 7 7 7 6 2 5 2 6 3 4 6 7 7 8 3 8 3 3 9 6 3 8 9 10 4 8 7 1 9 5 10 10 11 9 1 8 10 3 4 0 0 11 11 9 10 5 6 9 0 10 10 0 12 12 13 11 2 4 8 14 12 5 13 8 14 7 8 
